db/data/18681271373194391581295961401940311953.z3.out
sat
-------------------
703.854260792
